(set-info :source |printed by MathSAT|)
(declare-fun call_ticket3i.ite36 () Int)
(declare-fun call_ticket3i.ite9 () Int)
(declare-fun call_ticket3i.ite16 () Int)
(declare-fun call_ticket3i.ite29 () Int)
(declare-fun call_ticket3i.ite33 () Int)
(declare-fun call_ticket3i.flby7 () Int)
(declare-fun call_ticket3i.t () Int)
(declare-fun param_e1 () Bool)
(declare-fun param_e5 () Bool)
(declare-fun call_ticket3i.g4 () Bool)
(declare-fun call_ticket3i.ite14 () Int)
(declare-fun call_ticket3i.flby4 () Int)
(declare-fun call_ticket3i.g5 () Bool)
(declare-fun s () Int)
(declare-fun param_e8 () Bool)
(declare-fun call_ticket3i.p3 () Int)
(declare-fun erreur_ticket3i () Bool)
(declare-fun param_e6 () Bool)
(declare-fun call_ticket3i.ite28 () Int)
(declare-fun call_ticket3i.ite32 () Int)
(declare-fun call_ticket3i.ite7 () Int)
(declare-fun call_ticket3i.ite13 () Int)
(declare-fun t () Int)
(declare-fun call_ticket3i.erreur_ticket3i () Bool)
(declare-fun call_ticket3i.ite3 () Int)
(declare-fun call_ticket3i.ite8 () Int)
(declare-fun call_ticket3i.ite5 () Int)
(declare-fun call_ticket3i.g9 () Bool)
(declare-fun call_ticket3i.ite15 () Int)
(declare-fun call_ticket3i.flby6 () Int)
(declare-fun call_ticket3i.ite20 () Int)
(declare-fun call_ticket3i.ite23 () Int)
(declare-fun call_ticket3i.ite37 () Int)
(declare-fun call_ticket3i.ite31 () Int)
(declare-fun call_ticket3i.a2 () Int)
(declare-fun call_ticket3i.ite17 () Int)
(declare-fun p2 () Int)
(declare-fun param_e2 () Bool)
(declare-fun call_ticket3i.g2 () Bool)
(declare-fun call_ticket3i.ite11 () Int)
(declare-fun call_ticket3i.ite4 () Int)
(declare-fun call_Sofar.Sofar () Bool)
(declare-fun param_e7 () Bool)
(declare-fun p1 () Int)
(declare-fun call_ticket3i.flby8 () Int)
(declare-fun call_ticket3i.ite2 () Int)
(declare-fun a3 () Int)
(declare-fun call_ticket3i.s () Int)
(declare-fun call_Sofar.flby () Bool)
(declare-fun param_init_a2 () Int)
(declare-fun call_ticket3i.flby () Int)
(declare-fun a1 () Int)
(declare-fun call_ticket3i.ite27 () Int)
(declare-fun param_e3 () Bool)
(declare-fun call_ticket3i.ite35 () Int)
(declare-fun call_ticket3i.ite () Bool)
(declare-fun call_ticket3i.g8 () Bool)
(declare-fun call_ticket3i.ite22 () Int)
(declare-fun call_ticket3i.g3 () Bool)
(declare-fun call_ticket3i.g7 () Bool)
(declare-fun call_ticket3i.ite10 () Int)
(declare-fun call_ticket3i.g1 () Bool)
(declare-fun call_ticket3i.ite6 () Int)
(declare-fun call_ticket3i.p2 () Int)
(declare-fun call_ticket3i.g6 () Bool)
(declare-fun call_ticket3i.ite12 () Int)
(declare-fun call_ticket3i.ite18 () Int)
(declare-fun call_ticket3i.ite19 () Int)
(declare-fun param_init_t () Int)
(declare-fun p3 () Int)
(declare-fun call_excludes9.excludes () Bool)
(declare-fun call_ticket3i.p1 () Int)
(declare-fun call_ticket3i.ite26 () Int)
(declare-fun call_ticket3i.flby3 () Int)
(declare-fun call_ticket3i.ite34 () Int)
(declare-fun call_ticket3i.ite25 () Int)
(declare-fun call_ticket3i.a3 () Int)
(declare-fun call_ticket3i.ite30 () Int)
(declare-fun _OK_ () Bool)
(declare-fun param_e4 () Bool)
(declare-fun param_init_a3 () Int)
(declare-fun call_ticket3i.a1 () Int)
(declare-fun param_e9 () Bool)
(declare-fun call_ticket3i.ite21 () Int)
(declare-fun param_init_a1 () Int)
(declare-fun a2 () Int)
(declare-fun call_ticket3i.ite24 () Int)
(declare-fun call_ticket3i.flby2 () Int)
(declare-fun call_ticket3i.flby5 () Int)
(define-fun .def_1243 () Bool (= call_Sofar.flby call_Sofar.Sofar))
(define-fun .def_1100 () Bool (not param_e2))
(define-fun .def_901 () Bool (not param_e1))
(define-fun .def_1180 () Bool (and .def_901 .def_1100))
(define-fun .def_908 () Bool (not param_e3))
(define-fun .def_1181 () Bool (and .def_908 .def_1180))
(define-fun .def_915 () Bool (not param_e4))
(define-fun .def_1182 () Bool (and .def_915 .def_1181))
(define-fun .def_1132 () Bool (not param_e5))
(define-fun .def_1183 () Bool (and .def_1132 .def_1182))
(define-fun .def_922 () Bool (not param_e6))
(define-fun .def_1184 () Bool (and .def_922 .def_1183))
(define-fun .def_929 () Bool (not param_e7))
(define-fun .def_1185 () Bool (and .def_929 .def_1184))
(define-fun .def_1045 () Bool (not param_e8))
(define-fun .def_1186 () Bool (and .def_1045 .def_1185))
(define-fun .def_890 () Bool (not param_e9))
(define-fun .def_1231 () Bool (and .def_890 .def_1186))
(define-fun .def_1223 () Bool (and param_e1 .def_1100))
(define-fun .def_1224 () Bool (and .def_908 .def_1223))
(define-fun .def_1225 () Bool (and .def_915 .def_1224))
(define-fun .def_1226 () Bool (and .def_1132 .def_1225))
(define-fun .def_1227 () Bool (and .def_922 .def_1226))
(define-fun .def_1228 () Bool (and .def_929 .def_1227))
(define-fun .def_1229 () Bool (and .def_1045 .def_1228))
(define-fun .def_1230 () Bool (and .def_890 .def_1229))
(define-fun .def_1232 () Bool (or .def_1230 .def_1231))
(define-fun .def_1215 () Bool (and .def_901 param_e2))
(define-fun .def_1216 () Bool (and .def_908 .def_1215))
(define-fun .def_1217 () Bool (and .def_915 .def_1216))
(define-fun .def_1218 () Bool (and .def_1132 .def_1217))
(define-fun .def_1219 () Bool (and .def_922 .def_1218))
(define-fun .def_1220 () Bool (and .def_929 .def_1219))
(define-fun .def_1221 () Bool (and .def_1045 .def_1220))
(define-fun .def_1222 () Bool (and .def_890 .def_1221))
(define-fun .def_1233 () Bool (or .def_1222 .def_1232))
(define-fun .def_1208 () Bool (and param_e3 .def_1180))
(define-fun .def_1209 () Bool (and .def_915 .def_1208))
(define-fun .def_1210 () Bool (and .def_1132 .def_1209))
(define-fun .def_1211 () Bool (and .def_922 .def_1210))
(define-fun .def_1212 () Bool (and .def_929 .def_1211))
(define-fun .def_1213 () Bool (and .def_1045 .def_1212))
(define-fun .def_1214 () Bool (and .def_890 .def_1213))
(define-fun .def_1234 () Bool (or .def_1214 .def_1233))
(define-fun .def_1202 () Bool (and param_e4 .def_1181))
(define-fun .def_1203 () Bool (and .def_1132 .def_1202))
(define-fun .def_1204 () Bool (and .def_922 .def_1203))
(define-fun .def_1205 () Bool (and .def_929 .def_1204))
(define-fun .def_1206 () Bool (and .def_1045 .def_1205))
(define-fun .def_1207 () Bool (and .def_890 .def_1206))
(define-fun .def_1235 () Bool (or .def_1207 .def_1234))
(define-fun .def_1197 () Bool (and param_e5 .def_1182))
(define-fun .def_1198 () Bool (and .def_922 .def_1197))
(define-fun .def_1199 () Bool (and .def_929 .def_1198))
(define-fun .def_1200 () Bool (and .def_1045 .def_1199))
(define-fun .def_1201 () Bool (and .def_890 .def_1200))
(define-fun .def_1236 () Bool (or .def_1201 .def_1235))
(define-fun .def_1193 () Bool (and param_e6 .def_1183))
(define-fun .def_1194 () Bool (and .def_929 .def_1193))
(define-fun .def_1195 () Bool (and .def_1045 .def_1194))
(define-fun .def_1196 () Bool (and .def_890 .def_1195))
(define-fun .def_1237 () Bool (or .def_1196 .def_1236))
(define-fun .def_1190 () Bool (and param_e7 .def_1184))
(define-fun .def_1191 () Bool (and .def_1045 .def_1190))
(define-fun .def_1192 () Bool (and .def_890 .def_1191))
(define-fun .def_1238 () Bool (or .def_1192 .def_1237))
(define-fun .def_1188 () Bool (and param_e8 .def_1185))
(define-fun .def_1189 () Bool (and .def_890 .def_1188))
(define-fun .def_1239 () Bool (or .def_1189 .def_1238))
(define-fun .def_1187 () Bool (and param_e9 .def_1186))
(define-fun .def_1240 () Bool (or .def_1187 .def_1239))
(define-fun .def_1241 () Bool (= call_excludes9.excludes .def_1240))
(define-fun .def_1178 () Bool (= call_ticket3i.erreur_ticket3i call_ticket3i.ite))
(define-fun .def_1176 () Bool (= call_ticket3i.flby8 call_ticket3i.a3))
(define-fun .def_1174 () Bool (= call_ticket3i.flby7 call_ticket3i.a2))
(define-fun .def_1172 () Bool (= call_ticket3i.flby6 call_ticket3i.a1))
(define-fun .def_1170 () Bool (= call_ticket3i.flby5 call_ticket3i.s))
(define-fun .def_1168 () Bool (= call_ticket3i.flby4 call_ticket3i.t))
(define-fun .def_1166 () Bool (= call_ticket3i.flby3 call_ticket3i.p3))
(define-fun .def_1164 () Bool (= call_ticket3i.flby2 call_ticket3i.p2))
(define-fun .def_1161 () Bool (= call_ticket3i.flby call_ticket3i.p1))
(define-fun .def_1155 () Bool (<= 3 call_ticket3i.p3))
(define-fun .def_1153 () Bool (<= 3 call_ticket3i.p2))
(define-fun .def_1152 () Bool (<= 3 call_ticket3i.p1))
(define-fun .def_1154 () Bool (or .def_1152 .def_1153))
(define-fun .def_1156 () Bool (or .def_1154 .def_1155))
(define-fun .def_1158 () Bool (not .def_1156))
(define-fun .def_1159 () Bool (or call_ticket3i.ite .def_1158))
(define-fun .def_1151 () Bool (not call_ticket3i.ite))
(define-fun .def_1157 () Bool (or .def_1151 .def_1156))
(define-fun .def_1160 () Bool (and .def_1157 .def_1159))
(define-fun .def_1162 () Bool (and .def_1160 .def_1161))
(define-fun .def_1146 () Bool (= call_ticket3i.ite14 call_ticket3i.ite19))
(define-fun .def_1147 () Bool (or .def_929 .def_1146))
(define-fun .def_1144 () Bool (= call_ticket3i.ite18 call_ticket3i.ite19))
(define-fun .def_1145 () Bool (or param_e7 .def_1144))
(define-fun .def_1148 () Bool (and .def_1145 .def_1147))
(define-fun .def_1139 () Bool (= call_ticket3i.ite30 call_ticket3i.ite27))
(define-fun .def_1140 () Bool (or .def_922 .def_1139))
(define-fun .def_1136 () Bool (= call_ticket3i.ite29 call_ticket3i.ite30))
(define-fun .def_1137 () Bool (or param_e6 .def_1136))
(define-fun .def_1141 () Bool (and .def_1137 .def_1140))
(define-fun .def_1131 () Bool (= call_ticket3i.ite9 call_ticket3i.ite12))
(define-fun .def_1133 () Bool (or .def_1131 .def_1132))
(define-fun .def_1128 () Bool (= call_ticket3i.ite11 call_ticket3i.ite12))
(define-fun .def_1130 () Bool (or .def_1128 param_e5))
(define-fun .def_1134 () Bool (and .def_1130 .def_1133))
(define-fun .def_1124 () Bool (= call_ticket3i.ite23 call_ticket3i.ite24))
(define-fun .def_1125 () Bool (or param_e4 .def_1124))
(define-fun .def_1121 () Bool (= call_ticket3i.ite24 call_ticket3i.ite21))
(define-fun .def_1122 () Bool (or .def_915 .def_1121))
(define-fun .def_1117 () Bool (= call_ticket3i.ite8 call_ticket3i.ite13))
(define-fun .def_1118 () Bool (or .def_915 .def_1117))
(define-fun .def_1115 () Bool (= call_ticket3i.ite13 call_ticket3i.ite12))
(define-fun .def_1116 () Bool (or param_e4 .def_1115))
(define-fun .def_1119 () Bool (and .def_1116 .def_1118))
(define-fun .def_1123 () Bool (and .def_1119 .def_1122))
(define-fun .def_1126 () Bool (and .def_1123 .def_1125))
(define-fun .def_1109 () Bool (= call_ticket3i.ite31 call_ticket3i.ite26))
(define-fun .def_1110 () Bool (or .def_908 .def_1109))
(define-fun .def_1106 () Bool (= call_ticket3i.ite31 call_ticket3i.ite30))
(define-fun .def_1107 () Bool (or param_e3 .def_1106))
(define-fun .def_1111 () Bool (and .def_1107 .def_1110))
(define-fun .def_1099 () Bool (= call_ticket3i.ite3 call_ticket3i.ite6))
(define-fun .def_1101 () Bool (or .def_1099 .def_1100))
(define-fun .def_1096 () Bool (= call_ticket3i.ite5 call_ticket3i.ite6))
(define-fun .def_1098 () Bool (or .def_1096 param_e2))
(define-fun .def_1102 () Bool (and .def_1098 .def_1101))
(define-fun .def_1092 () Bool (= call_ticket3i.ite25 call_ticket3i.ite24))
(define-fun .def_1093 () Bool (or param_e1 .def_1092))
(define-fun .def_1088 () Bool (= call_ticket3i.ite20 call_ticket3i.ite25))
(define-fun .def_1089 () Bool (or .def_901 .def_1088))
(define-fun .def_1083 () Bool (= call_ticket3i.ite2 call_ticket3i.ite7))
(define-fun .def_1084 () Bool (or .def_901 .def_1083))
(define-fun .def_1081 () Bool (= call_ticket3i.ite7 call_ticket3i.ite6))
(define-fun .def_1082 () Bool (or param_e1 .def_1081))
(define-fun .def_1085 () Bool (and .def_1082 .def_1084))
(define-fun .def_1090 () Bool (and .def_1085 .def_1089))
(define-fun .def_1094 () Bool (and .def_1090 .def_1093))
(define-fun .def_1077 () Bool (= erreur_ticket3i call_ticket3i.erreur_ticket3i))
(define-fun .def_1074 () Bool (= a3 call_ticket3i.a3))
(define-fun .def_1070 () Bool (= a2 call_ticket3i.a2))
(define-fun .def_1066 () Bool (= a1 call_ticket3i.a1))
(define-fun .def_1062 () Bool (= s call_ticket3i.s))
(define-fun .def_1058 () Bool (= call_ticket3i.t t))
(define-fun .def_1055 () Bool (= p3 call_ticket3i.p3))
(define-fun .def_1051 () Bool (= p2 call_ticket3i.p2))
(define-fun .def_1044 () Bool (= call_ticket3i.ite15 call_ticket3i.ite18))
(define-fun .def_1046 () Bool (or .def_1044 .def_1045))
(define-fun .def_1041 () Bool (= call_ticket3i.ite17 call_ticket3i.ite18))
(define-fun .def_1043 () Bool (or .def_1041 param_e8))
(define-fun .def_1047 () Bool (and .def_1043 .def_1046))
(define-fun .def_1038 () Bool (= p1 call_ticket3i.p1))
(define-fun .def_1033 () Bool (not erreur_ticket3i))
(define-fun .def_1031 () Bool (not call_Sofar.Sofar))
(define-fun .def_1034 () Bool (or .def_1031 .def_1033))
(define-fun .def_1035 () Bool (= _OK_ .def_1034))
(define-fun .def_1039 () Bool (and .def_1035 .def_1038))
(define-fun .def_1048 () Bool (and .def_1039 .def_1047))
(define-fun .def_1052 () Bool (and .def_1048 .def_1051))
(define-fun .def_1056 () Bool (and .def_1052 .def_1055))
(define-fun .def_1059 () Bool (and .def_1056 .def_1058))
(define-fun .def_1063 () Bool (and .def_1059 .def_1062))
(define-fun .def_1067 () Bool (and .def_1063 .def_1066))
(define-fun .def_1071 () Bool (and .def_1067 .def_1070))
(define-fun .def_1075 () Bool (and .def_1071 .def_1074))
(define-fun .def_1078 () Bool (and .def_1075 .def_1077))
(define-fun .def_1095 () Bool (and .def_1078 .def_1094))
(define-fun .def_1103 () Bool (and .def_1095 .def_1102))
(define-fun .def_1112 () Bool (and .def_1103 .def_1111))
(define-fun .def_1127 () Bool (and .def_1112 .def_1126))
(define-fun .def_1135 () Bool (and .def_1127 .def_1134))
(define-fun .def_1142 () Bool (and .def_1135 .def_1141))
(define-fun .def_1149 () Bool (and .def_1142 .def_1148))
(define-fun .def_1163 () Bool (and .def_1149 .def_1162))
(define-fun .def_1165 () Bool (and .def_1163 .def_1164))
(define-fun .def_1167 () Bool (and .def_1165 .def_1166))
(define-fun .def_1169 () Bool (and .def_1167 .def_1168))
(define-fun .def_1171 () Bool (and .def_1169 .def_1170))
(define-fun .def_1173 () Bool (and .def_1171 .def_1172))
(define-fun .def_1175 () Bool (and .def_1173 .def_1174))
(define-fun .def_1177 () Bool (and .def_1175 .def_1176))
(define-fun .def_1179 () Bool (and .def_1177 .def_1178))
(define-fun .def_1242 () Bool (and .def_1179 .def_1241))
(define-fun .def_1244 () Bool (and .def_1242 .def_1243))
(define-fun .def_1024 () Bool (<= 0 param_init_t))
(define-fun .def_1022 () Bool (<= 0 param_init_a3))
(define-fun .def_1020 () Bool (<= 0 param_init_a2))
(define-fun .def_1017 () Bool (<= 0 param_init_a1))
(define-fun .def_1019 () Bool (and .def_1017 call_excludes9.excludes))
(define-fun .def_1021 () Bool (and .def_1019 .def_1020))
(define-fun .def_1023 () Bool (and .def_1021 .def_1022))
(define-fun .def_1025 () Bool (and .def_1023 .def_1024))
(define-fun .def_1027 () Bool (= .def_1025 call_Sofar.flby))
(define-fun .def_1015 () Bool (= param_init_a3 call_ticket3i.flby8))
(define-fun .def_1011 () Bool (= param_init_a2 call_ticket3i.flby7))
(define-fun .def_1007 () Bool (= param_init_a1 call_ticket3i.flby6))
(define-fun .def_1003 () Bool (= call_ticket3i.t call_ticket3i.flby5))
(define-fun .def_999 () Bool (= param_init_t call_ticket3i.flby4))
(define-fun .def_995 () Bool (= call_ticket3i.flby3 0))
(define-fun .def_992 () Bool (= call_ticket3i.flby2 0))
(define-fun .def_989 () Bool (= call_ticket3i.flby 0))
(define-fun .def_985 () Bool (= call_ticket3i.ite16 0))
(define-fun .def_984 () Bool (not call_ticket3i.g9))
(define-fun .def_986 () Bool (or .def_984 .def_985))
(define-fun .def_980 () Bool (= call_ticket3i.ite15 2))
(define-fun .def_978 () Bool (not call_ticket3i.g8))
(define-fun .def_981 () Bool (or .def_978 .def_980))
(define-fun .def_974 () Bool (= call_ticket3i.ite14 1))
(define-fun .def_972 () Bool (not call_ticket3i.g7))
(define-fun .def_975 () Bool (or .def_972 .def_974))
(define-fun .def_968 () Bool (= call_ticket3i.ite10 0))
(define-fun .def_967 () Bool (not call_ticket3i.g6))
(define-fun .def_969 () Bool (or .def_967 .def_968))
(define-fun .def_963 () Bool (= call_ticket3i.ite9 2))
(define-fun .def_961 () Bool (not call_ticket3i.g5))
(define-fun .def_964 () Bool (or .def_961 .def_963))
(define-fun .def_957 () Bool (= call_ticket3i.ite8 1))
(define-fun .def_955 () Bool (not call_ticket3i.g4))
(define-fun .def_958 () Bool (or .def_955 .def_957))
(define-fun .def_951 () Bool (= call_ticket3i.ite4 0))
(define-fun .def_950 () Bool (not call_ticket3i.g3))
(define-fun .def_952 () Bool (or .def_950 .def_951))
(define-fun .def_946 () Bool (= call_ticket3i.ite3 2))
(define-fun .def_944 () Bool (not call_ticket3i.g2))
(define-fun .def_947 () Bool (or .def_944 .def_946))
(define-fun .def_940 () Bool (= call_ticket3i.ite2 1))
(define-fun .def_938 () Bool (not call_ticket3i.g1))
(define-fun .def_941 () Bool (or .def_938 .def_940))
(define-fun .def_933 () Bool (= call_ticket3i.ite22 call_ticket3i.ite23))
(define-fun .def_934 () Bool (or .def_929 .def_933))
(define-fun .def_927 () Bool (= call_ticket3i.ite37 call_ticket3i.ite36))
(define-fun .def_930 () Bool (or .def_927 .def_929))
(define-fun .def_935 () Bool (and .def_930 .def_934))
(define-fun .def_920 () Bool (= call_ticket3i.ite10 call_ticket3i.ite11))
(define-fun .def_923 () Bool (or .def_920 .def_922))
(define-fun .def_913 () Bool (= call_ticket3i.ite35 call_ticket3i.ite34))
(define-fun .def_916 () Bool (or .def_913 .def_915))
(define-fun .def_906 () Bool (= call_ticket3i.ite4 call_ticket3i.ite5))
(define-fun .def_909 () Bool (or .def_906 .def_908))
(define-fun .def_899 () Bool (= call_ticket3i.ite33 call_ticket3i.ite32))
(define-fun .def_902 () Bool (or .def_899 .def_901))
(define-fun .def_894 () Bool (= call_ticket3i.ite16 call_ticket3i.ite17))
(define-fun .def_895 () Bool (or .def_890 .def_894))
(define-fun .def_888 () Bool (= call_ticket3i.ite28 call_ticket3i.ite29))
(define-fun .def_891 () Bool (or .def_888 .def_890))
(define-fun .def_896 () Bool (and .def_891 .def_895))
(define-fun .def_903 () Bool (and .def_896 .def_902))
(define-fun .def_910 () Bool (and .def_903 .def_909))
(define-fun .def_917 () Bool (and .def_910 .def_916))
(define-fun .def_924 () Bool (and .def_917 .def_923))
(define-fun .def_936 () Bool (and .def_924 .def_935))
(define-fun .def_942 () Bool (and .def_936 .def_941))
(define-fun .def_948 () Bool (and .def_942 .def_947))
(define-fun .def_953 () Bool (and .def_948 .def_952))
(define-fun .def_959 () Bool (and .def_953 .def_958))
(define-fun .def_965 () Bool (and .def_959 .def_964))
(define-fun .def_970 () Bool (and .def_965 .def_969))
(define-fun .def_976 () Bool (and .def_970 .def_975))
(define-fun .def_982 () Bool (and .def_976 .def_981))
(define-fun .def_987 () Bool (and .def_982 .def_986))
(define-fun .def_990 () Bool (and .def_987 .def_989))
(define-fun .def_993 () Bool (and .def_990 .def_992))
(define-fun .def_996 () Bool (and .def_993 .def_995))
(define-fun .def_1000 () Bool (and .def_996 .def_999))
(define-fun .def_1004 () Bool (and .def_1000 .def_1003))
(define-fun .def_1008 () Bool (and .def_1004 .def_1007))
(define-fun .def_1012 () Bool (and .def_1008 .def_1011))
(define-fun .def_1016 () Bool (and .def_1012 .def_1015))
(define-fun .def_1028 () Bool (and .def_1016 .def_1027))
(define-fun .def_1245 () Bool (and .def_1028 .def_1244))
(assert .def_1245)
